20
1 0 2
2 0 4
2 1 12
3 0 2
3 1 2
3 2 6
4 0 4
4 1 6
4 2 12
4 3 1
5 0 5
5 1 7
5 2 11
5 3 5
5 4 8
6 0 6
6 1 9
6 2 6
6 3 2
6 4 6
6 5 12
7 0 3
7 1 2
7 2 1
7 3 3
7 4 2
7 5 11
7 6 2
8 0 3
8 1 7
8 2 6
8 3 6
8 4 1
8 5 11
8 6 6
8 7 9
9 0 12
9 1 12
9 2 10
9 3 11
9 4 2
9 5 1
9 6 12
9 7 6
9 8 1
10 0 3
10 1 2
10 2 11
10 3 5
10 4 8
10 5 5
10 6 6
10 7 8
10 8 5
10 9 6
11 0 11
11 1 10
11 2 2
11 3 6
11 4 3
11 5 5
11 6 1
11 7 5
11 8 7
11 9 1
11 10 10
12 0 7
12 1 5
12 2 11
12 3 6
12 4 9
12 5 4
12 6 9
12 7 4
12 8 9
12 9 5
12 10 6
12 11 5
13 0 7
13 1 1
13 2 7
13 3 9
13 4 9
13 5 4
13 6 7
13 7 3
13 8 2
13 9 5
13 10 9
13 11 11
13 12 4
14 0 1
14 1 12
14 2 9
14 3 11
14 4 6
14 5 10
14 6 1
14 7 5
14 8 7
14 9 5
14 10 2
14 11 6
14 12 12
14 13 5
15 0 5
15 1 5
15 2 11
15 3 4
15 4 2
15 5 1
15 6 12
15 7 9
15 8 4
15 9 8
15 10 1
15 11 11
15 12 3
15 13 5
15 14 11
16 0 1
16 1 10
16 2 1
16 3 1
16 4 12
16 5 11
16 6 9
16 7 7
16 8 4
16 9 12
16 10 2
16 11 10
16 12 11
16 13 10
16 14 1
16 15 7
17 0 8
17 1 12
17 2 8
17 3 4
17 4 8
17 5 11
17 6 6
17 7 8
17 8 7
17 9 2
17 10 3
17 11 8
17 12 11
17 13 5
17 14 6
17 15 5
17 16 8
18 0 6
18 1 2
18 2 1
18 3 12
18 4 12
18 5 1
18 6 8
18 7 10
18 8 3
18 9 8
18 10 1
18 11 3
18 12 10
18 13 4
18 14 9
18 15 4
18 16 2
18 17 1
19 0 5
19 1 11
19 2 1
19 3 2
19 4 12
19 5 5
19 6 2
19 7 1
19 8 7
19 9 7
19 10 7
19 11 3
19 12 8
19 13 4
19 14 9
19 15 9
19 16 8
19 17 6
19 18 6
